Geographic Exponential Decay
40 140 315 110 289 5 290 307 282 105 260 57 26 142 253 230 161 100 144 116 202 242 277 286 199 189 21 120 318 166 203 303 91 98 94 115 111 257 234 295 176
p edge 320 1248
e 0 95 1.0
e 1 107 5.0
e 1 311 3.0
e 2 15 1.0
e 2 182 5.0
e 3 1 5.0
e 3 104 5.0
e 4 220 1.0
e 4 207 6.0
e 5 315 51.0
e 5 56 90.0
e 5 50 65.0
e 5 79 66.0
e 5 74 69.0
e 5 162 6.0
e 5 173 95.0
e 5 89 23.0
e 5 158 69.0
e 5 139 7.0
e 5 92 96.0
e 5 52 58.0
e 5 177 39.0
e 5 275 26.0
e 5 86 21.0
e 5 100 4.0
e 5 82 47.0
e 5 208 2.0
e 5 108 19.0
e 5 305 67.0
e 5 260 79.0
e 5 264 35.0
e 5 84 59.0
e 5 31 47.0
e 5 95 6.0
e 5 262 86.0
e 5 4 17.0
e 6 182 2.0
e 7 261 3.0
e 8 9 1.0
e 10 17 2.0
e 11 162 14.0
e 11 212 5.0
e 12 262 3.0
e 12 300 4.0
e 13 263 2.0
e 14 265 1.0
e 14 284 6.0
e 14 87 7.0
e 14 269 7.0
e 16 258 3.0
e 16 163 5.0
e 18 241 1.0
e 19 14 1.0
e 19 3 1.0
e 20 51 1.0
e 20 302 1.0
e 21 273 47.0
e 21 63 83.0
e 21 201 98.0
e 21 300 13.0
e 21 119 78.0
e 21 276 55.0
e 21 43 53.0
e 21 274 3.0
e 21 44 65.0
e 21 228 18.0
e 21 45 65.0
e 21 158 2.0
e 21 111 64.0
e 21 277 48.0
e 21 18 85.0
e 21 233 22.0
e 21 297 32.0
e 21 278 71.0
e 21 54 31.0
e 21 49 19.0
e 21 20 42.0
e 21 17 22.0
e 21 32 24.0
e 21 262 47.0
e 21 110 84.0
e 21 203 15.0
e 21 176 36.0
e 22 2 4.0
e 23 108 5.0
e 23 275 1.0
e 24 14 1.0
e 25 158 22.0
e 25 190 22.0
e 25 291 15.0
e 25 167 1.0
e 25 111 71.0
e 25 276 22.0
e 25 123 11.0
e 26 33 60.0
e 26 272 68.0
e 26 311 15.0
e 26 252 22.0
e 26 143 11.0
e 26 300 7.0
e 26 119 4.0
e 26 114 36.0
e 26 139 22.0
e 26 265 14.0
e 26 200 80.0
e 26 245 15.0
e 26 77 31.0
e 26 149 68.0
e 26 257 85.0
e 26 91 95.0
e 26 303 83.0
e 26 78 64.0
e 26 268 71.0
e 26 136 60.0
e 26 37 5.0
e 26 75 8.0
e 26 221 25.0
e 26 161 71.0
e 26 172 26.0
e 26 198 77.0
e 26 284 58.0
e 27 74 9.0
e 27 174 3.0
e 28 90 4.0
e 29 260 13.0
e 29 36 2.0
e 30 181 2.0
e 31 59 5.0
e 32 224 3.0
e 34 285 7.0
e 35 47 2.0
e 36 123 7.0
e 36 117 6.0
e 36 49 5.0
e 38 273 4.0
e 38 106 1.0
e 39 222 1.0
e 39 6 1.0
e 40 202 41.0
e 41 129 1.0
e 42 275 1.0
e 43 95 3.0
e 46 105 73.0
e 47 117 1.0
e 48 16 9.0
e 48 25 1.0
e 48 77 1.0
e 48 4 1.0
e 50 143 1.0
e 52 97 10.0
e 52 224 11.0
e 52 264 11.0
e 52 122 3.0
e 52 294 4.0
e 52 135 15.0
e 53 103 4.0
e 53 175 3.0
e 55 124 5.0
e 56 14 9.0
e 57 8 85.0
e 57 10 82.0
e 57 58 40.0
e 57 200 27.0
e 57 313 95.0
e 57 136 36.0
e 57 176 45.0
e 57 4 81.0
e 57 122 5.0
e 57 190 48.0
e 57 119 89.0
e 57 274 16.0
e 57 263 79.0
e 57 206 31.0
e 57 314 99.0
e 57 110 21.0
e 57 61 55.0
e 57 315 76.0
e 57 111 7.0
e 57 229 48.0
e 57 270 41.0
e 57 144 11.0
e 57 87 64.0
e 57 163 99.0
e 57 34 43.0
e 57 268 62.0
e 57 13 51.0
e 59 17 1.0
e 60 78 1.0
e 62 285 14.0
e 64 236 6.0
e 64 157 5.0
e 64 308 7.0
e 64 107 7.0
e 65 137 1.0
e 65 180 1.0
e 66 178 2.0
e 67 299 1.0
e 67 29 10.0
e 67 250 6.0
e 67 210 2.0
e 68 189 16.0
e 69 143 3.0
e 70 250 6.0
e 71 147 2.0
e 71 133 5.0
e 71 126 8.0
e 71 274 12.0
e 72 175 6.0
e 72 84 5.0
e 73 233 12.0
e 73 318 30.0
e 73 24 5.0
e 73 170 2.0
e 74 207 23.0
e 74 165 13.0
e 74 176 95.0
e 74 15 1.0
e 74 249 8.0
e 75 55 11.0
e 75 196 9.0
e 75 277 99.0
e 75 228 3.0
e 75 6 3.0
e 75 153 18.0
e 76 207 5.0
e 76 199 63.0
e 80 152 3.0
e 80 17 3.0
e 81 255 4.0
e 81 293 2.0
e 81 47 2.0
e 81 167 2.0
e 82 298 16.0
e 82 191 5.0
e 82 95 8.0
e 82 174 1.0
e 82 74 7.0
e 82 100 50.0
e 83 34 2.0
e 85 192 1.0
e 88 183 1.0
e 90 8 1.0
e 91 28 63.0
e 91 234 1.0
e 91 74 73.0
e 91 108 3.0
e 91 144 9.0
e 91 116 89.0
e 91 7 2.0
e 91 189 74.0
e 91 172 55.0
e 91 150 32.0
e 91 240 49.0
e 91 152 79.0
e 91 89 84.0
e 91 13 34.0
e 91 232 46.0
e 91 30 39.0
e 91 46 84.0
e 91 191 53.0
e 91 18 51.0
e 91 279 86.0
e 91 97 6.0
e 91 274 56.0
e 91 280 10.0
e 91 173 73.0
e 91 148 87.0
e 91 245 99.0
e 92 75 8.0
e 93 155 1.0
e 94 120 89.0
e 94 79 29.0
e 94 247 13.0
e 94 224 29.0
e 94 222 24.0
e 94 58 98.0
e 94 174 69.0
e 94 306 20.0
e 94 91 42.0
e 94 147 72.0
e 94 106 32.0
e 94 13 47.0
e 94 140 49.0
e 94 266 19.0
e 94 95 58.0
e 94 204 29.0
e 94 161 35.0
e 94 48 94.0
e 94 314 10.0
e 94 32 19.0
e 94 291 7.0
e 94 257 57.0
e 94 181 86.0
e 94 44 32.0
e 94 143 85.0
e 94 235 98.0
e 94 21 83.0
e 96 34 2.0
e 97 180 10.0
e 97 123 2.0
e 98 87 69.0
e 98 229 47.0
e 98 151 69.0
e 98 120 50.0
e 98 264 20.0
e 98 304 32.0
e 98 141 23.0
e 98 221 62.0
e 98 177 27.0
e 98 219 18.0
e 98 182 71.0
e 98 266 79.0
e 98 312 93.0
e 98 317 1.0
e 98 134 46.0
e 98 112 9.0
e 98 300 91.0
e 98 282 68.0
e 98 74 29.0
e 98 230 29.0
e 98 63 50.0
e 98 295 84.0
e 98 193 86.0
e 98 243 33.0
e 98 133 34.0
e 98 189 80.0
e 98 261 86.0
e 99 128 1.0
e 100 247 44.0
e 100 48 21.0
e 100 188 63.0
e 100 300 63.0
e 100 266 80.0
e 100 199 38.0
e 100 59 91.0
e 100 0 7.0
e 100 220 32.0
e 100 163 67.0
e 100 194 94.0
e 100 241 40.0
e 100 143 71.0
e 100 22 42.0
e 100 187 8.0
e 100 42 15.0
e 100 36 25.0
e 100 73 88.0
e 100 109 84.0
e 100 32 74.0
e 100 70 72.0
e 100 265 100.0
e 100 198 9.0
e 100 101 50.0
e 100 131 23.0
e 102 247 2.0
e 103 180 3.0
e 104 160 2.0
e 105 307 83.0
e 105 118 29.0
e 105 14 6.0
e 105 142 99.0
e 105 50 72.0
e 105 153 4.0
e 105 205 48.0
e 105 163 39.0
e 105 6 49.0
e 105 284 71.0
e 105 301 97.0
e 105 194 97.0
e 105 121 94.0
e 105 168 23.0
e 105 88 17.0
e 105 235 33.0
e 105 25 32.0
e 105 314 48.0
e 105 238 73.0
e 105 115 6.0
e 105 318 92.0
e 105 106 94.0
e 105 86 91.0
e 105 272 95.0
e 105 262 31.0
e 105 204 90.0
e 109 279 1.0
e 110 265 10.0
e 110 301 33.0
e 110 271 26.0
e 110 13 60.0
e 110 275 51.0
e 110 14 10.0
e 110 50 32.0
e 110 233 69.0
e 110 303 54.0
e 110 125 12.0
e 110 0 92.0
e 110 256 78.0
e 110 184 42.0
e 110 56 39.0
e 110 178 9.0
e 110 235 80.0
e 110 227 50.0
e 110 217 37.0
e 110 63 21.0
e 110 15 59.0
e 110 269 30.0
e 110 180 35.0
e 110 289 60.0
e 110 257 32.0
e 110 258 79.0
e 111 230 90.0
e 111 117 76.0
e 111 233 41.0
e 111 58 51.0
e 111 49 56.0
e 111 85 21.0
e 111 165 65.0
e 111 194 36.0
e 111 182 52.0
e 111 72 85.0
e 111 102 16.0
e 111 269 31.0
e 111 33 24.0
e 111 15 11.0
e 111 137 21.0
e 111 161 70.0
e 111 43 64.0
e 111 70 77.0
e 111 76 7.0
e 111 108 18.0
e 111 59 91.0
e 111 261 38.0
e 111 300 100.0
e 111 187 63.0
e 112 110 26.0
e 113 246 2.0
e 115 135 35.0
e 115 171 78.0
e 115 138 95.0
e 115 187 23.0
e 115 211 80.0
e 115 113 97.0
e 115 77 32.0
e 115 270 18.0
e 115 49 50.0
e 115 316 31.0
e 115 81 17.0
e 115 239 80.0
e 115 260 59.0
e 115 15 33.0
e 115 56 64.0
e 115 183 44.0
e 115 285 98.0
e 115 0 68.0
e 115 157 10.0
e 115 21 95.0
e 115 241 69.0
e 115 159 95.0
e 115 283 34.0
e 115 305 14.0
e 115 24 98.0
e 115 231 2.0
e 116 242 22.0
e 116 250 7.0
e 116 19 94.0
e 116 86 81.0
e 116 77 21.0
e 116 4 30.0
e 116 62 10.0
e 116 269 61.0
e 116 265 2.0
e 116 251 78.0
e 116 209 33.0
e 116 258 33.0
e 116 158 11.0
e 116 138 18.0
e 116 312 37.0
e 116 292 23.0
e 116 63 67.0
e 116 245 11.0
e 116 17 95.0
e 116 308 97.0
e 116 189 69.0
e 116 314 81.0
e 116 20 64.0
e 116 215 21.0
e 116 113 32.0
e 116 210 90.0
e 118 83 1.0
e 120 203 72.0
e 120 214 89.0
e 120 223 58.0
e 120 278 58.0
e 120 168 94.0
e 120 39 99.0
e 120 46 99.0
e 120 219 99.0
e 120 9 66.0
e 120 114 60.0
e 120 210 76.0
e 120 128 3.0
e 120 149 1.0
e 120 186 100.0
e 120 24 7.0
e 120 245 93.0
e 120 164 16.0
e 120 141 83.0
e 120 104 39.0
e 120 85 55.0
e 120 53 17.0
e 120 56 7.0
e 120 7 39.0
e 120 286 37.0
e 120 36 72.0
e 121 270 5.0
e 124 17 11.0
e 124 269 3.0
e 124 298 9.0
e 125 101 1.0
e 126 40 2.0
e 127 50 2.0
e 129 136 5.0
e 130 80 3.0
e 132 292 5.0
e 132 63 2.0
e 136 162 7.0
e 140 87 93.0
e 140 258 43.0
e 140 34 6.0
e 140 138 89.0
e 140 141 64.0
e 140 14 69.0
e 140 93 95.0
e 140 267 21.0
e 140 103 54.0
e 140 90 82.0
e 140 102 7.0
e 140 203 22.0
e 140 299 61.0
e 140 8 9.0
e 140 123 16.0
e 140 58 9.0
e 140 132 50.0
e 140 137 32.0
e 140 119 70.0
e 140 45 21.0
e 140 101 81.0
e 140 306 82.0
e 140 120 5.0
e 140 317 95.0
e 140 274 25.0
e 140 234 96.0
e 142 123 32.0
e 142 255 74.0
e 142 20 80.0
e 142 308 16.0
e 142 258 64.0
e 142 315 6.0
e 142 316 26.0
e 142 16 15.0
e 142 13 28.0
e 142 82 61.0
e 142 140 61.0
e 142 117 51.0
e 142 205 61.0
e 142 176 34.0
e 142 154 38.0
e 142 32 36.0
e 142 289 64.0
e 142 53 21.0
e 142 264 83.0
e 142 27 75.0
e 142 248 51.0
e 142 39 75.0
e 142 141 20.0
e 142 159 84.0
e 142 173 89.0
e 142 106 4.0
e 144 90 5.0
e 144 69 68.0
e 144 89 78.0
e 144 8 81.0
e 144 126 45.0
e 144 133 57.0
e 144 190 70.0
e 144 46 62.0
e 144 92 65.0
e 144 189 94.0
e 144 284 54.0
e 144 29 46.0
e 144 45 71.0
e 144 115 6.0
e 144 233 42.0
e 144 93 9.0
e 144 94 78.0
e 144 241 34.0
e 144 95 3.0
e 144 162 84.0
e 144 109 73.0
e 144 96 89.0
e 144 161 75.0
e 144 164 98.0
e 144 261 84.0
e 145 97 6.0
e 146 58 2.0
e 154 46 4.0
e 156 44 2.0
e 161 88 34.0
e 161 138 35.0
e 161 266 95.0
e 161 227 75.0
e 161 27 63.0
e 161 258 96.0
e 161 46 94.0
e 161 23 57.0
e 161 250 52.0
e 161 40 68.0
e 161 131 84.0
e 161 115 73.0
e 161 154 89.0
e 161 95 31.0
e 161 243 6.0
e 161 116 30.0
e 161 139 80.0
e 161 277 2.0
e 161 204 40.0
e 161 61 31.0
e 161 21 80.0
e 161 4 65.0
e 161 5 100.0
e 162 92 5.0
e 162 245 24.0
e 162 47 15.0
e 166 266 69.0
e 166 2 38.0
e 166 165 76.0
e 166 87 88.0
e 166 154 64.0
e 166 181 85.0
e 166 12 44.0
e 166 237 34.0
e 166 305 69.0
e 166 140 41.0
e 166 189 21.0
e 166 218 76.0
e 166 126 65.0
e 166 84 83.0
e 166 51 96.0
e 166 169 23.0
e 166 309 19.0
e 166 182 78.0
e 166 183 79.0
e 166 149 67.0
e 166 158 81.0
e 166 116 54.0
e 166 170 84.0
e 166 52 39.0
e 166 204 3.0
e 166 245 72.0
e 166 128 30.0
e 169 144 47.0
e 169 98 8.0
e 169 247 45.0
e 169 258 6.0
e 169 241 22.0
e 169 308 47.0
e 169 251 4.0
e 169 58 17.0
e 169 22 49.0
e 169 234 25.0
e 169 54 45.0
e 169 76 1.0
e 169 19 31.0
e 170 111 20.0
e 170 78 1.0
e 173 196 12.0
e 176 225 14.0
e 176 96 42.0
e 176 46 49.0
e 176 254 16.0
e 176 44 68.0
e 176 285 36.0
e 176 244 21.0
e 176 54 51.0
e 176 219 19.0
e 176 40 42.0
e 176 187 82.0
e 176 104 64.0
e 176 228 75.0
e 176 72 10.0
e 176 68 46.0
e 176 224 51.0
e 176 171 90.0
e 176 232 71.0
e 176 163 61.0
e 176 97 35.0
e 176 70 17.0
e 176 234 43.0
e 176 130 100.0
e 179 78 1.0
e 179 144 48.0
e 184 271 5.0
e 185 29 1.0
e 186 77 22.0
e 186 75 15.0
e 186 163 11.0
e 186 113 7.0
e 186 169 49.0
e 186 97 5.0
e 188 15 4.0
e 189 303 25.0
e 189 277 63.0
e 189 271 5.0
e 189 89 31.0
e 189 75 89.0
e 189 284 41.0
e 189 24 17.0
e 189 8 88.0
e 189 176 47.0
e 189 142 62.0
e 189 145 41.0
e 189 85 67.0
e 189 190 78.0
e 189 29 31.0
e 189 311 66.0
e 189 175 63.0
e 189 5 51.0
e 189 243 83.0
e 189 313 26.0
e 189 292 12.0
e 189 94 71.0
e 191 32 9.0
e 191 130 1.0
e 195 230 71.0
e 195 183 1.0
e 197 305 8.0
e 197 301 5.0
e 197 179 3.0
e 197 254 2.0
e 199 197 51.0
e 199 103 62.0
e 199 280 96.0
e 199 297 52.0
e 199 312 6.0
e 199 175 25.0
e 199 238 88.0
e 199 79 17.0
e 199 90 36.0
e 199 260 22.0
e 199 2 38.0
e 199 72 68.0
e 199 164 87.0
e 199 215 49.0
e 199 7 67.0
e 199 237 73.0
e 199 89 65.0
e 199 19 24.0
e 199 292 87.0
e 199 232 6.0
e 199 296 43.0
e 199 269 48.0
e 199 166 5.0
e 199 309 18.0
e 199 167 55.0
e 201 133 3.0
e 201 262 4.0
e 201 146 5.0
e 202 293 62.0
e 202 0 86.0
e 202 110 38.0
e 202 66 99.0
e 202 107 9.0
e 202 217 99.0
e 202 63 37.0
e 202 243 62.0
e 202 124 74.0
e 202 152 13.0
e 202 175 16.0
e 202 153 53.0
e 202 205 38.0
e 202 72 59.0
e 202 201 35.0
e 202 199 8.0
e 202 283 13.0
e 202 177 21.0
e 202 273 14.0
e 202 133 90.0
e 202 229 26.0
e 202 223 4.0
e 202 116 48.0
e 202 47 33.0
e 202 304 34.0
e 202 198 5.0
e 203 127 27.0
e 203 135 82.0
e 203 116 85.0
e 203 185 9.0
e 203 121 64.0
e 203 236 55.0
e 203 187 29.0
e 203 189 41.0
e 203 242 10.0
e 203 270 99.0
e 203 128 4.0
e 203 64 77.0
e 203 155 39.0
e 203 284 2.0
e 203 253 4.0
e 203 86 92.0
e 203 79 59.0
e 203 250 3.0
e 203 293 56.0
e 203 206 7.0
e 203 296 54.0
e 203 74 87.0
e 203 56 32.0
e 203 75 49.0
e 208 45 10.0
e 208 192 4.0
e 208 148 1.0
e 211 269 45.0
e 211 248 27.0
e 211 175 40.0
e 211 228 35.0
e 211 7 21.0
e 211 187 25.0
e 211 137 22.0
e 211 67 47.0
e 211 164 4.0
e 211 99 47.0
e 211 286 48.0
e 211 255 29.0
e 211 191 26.0
e 213 253 67.0
e 214 211 34.0
e 214 104 13.0
e 214 146 18.0
e 214 186 10.0
e 214 114 7.0
e 214 162 10.0
e 216 271 4.0
e 218 106 5.0
e 225 53 1.0
e 226 18 2.0
e 226 174 1.0
e 230 43 22.0
e 230 205 92.0
e 230 274 98.0
e 230 55 89.0
e 230 21 15.0
e 230 162 59.0
e 230 264 51.0
e 230 51 47.0
e 230 313 59.0
e 230 227 30.0
e 230 255 3.0
e 230 6 20.0
e 230 163 18.0
e 230 304 68.0
e 230 248 82.0
e 230 106 87.0
e 230 223 85.0
e 230 211 25.0
e 230 140 58.0
e 230 257 34.0
e 230 26 78.0
e 230 302 72.0
e 230 273 28.0
e 230 118 99.0
e 234 55 42.0
e 234 79 95.0
e 234 54 3.0
e 234 219 77.0
e 234 13 80.0
e 234 144 7.0
e 234 38 98.0
e 234 146 50.0
e 234 285 38.0
e 234 194 34.0
e 234 105 97.0
e 234 314 16.0
e 234 290 40.0
e 234 3 67.0
e 234 122 27.0
e 234 229 27.0
e 234 226 71.0
e 234 274 88.0
e 234 298 49.0
e 234 161 68.0
e 234 111 71.0
e 234 272 8.0
e 234 103 50.0
e 238 37 33.0
e 238 112 22.0
e 238 151 33.0
e 238 277 100.0
e 238 161 78.0
e 238 178 5.0
e 238 17 47.0
e 238 252 46.0
e 238 254 7.0
e 238 191 9.0
e 238 97 38.0
e 238 61 19.0
e 242 99 74.0
e 242 155 2.0
e 242 41 93.0
e 242 281 49.0
e 242 138 55.0
e 242 243 99.0
e 242 222 29.0
e 242 1 12.0
e 242 215 87.0
e 242 94 29.0
e 242 20 39.0
e 242 131 89.0
e 242 186 66.0
e 242 287 60.0
e 242 119 69.0
e 242 120 71.0
e 242 122 93.0
e 242 295 42.0
e 242 216 21.0
e 242 39 31.0
e 242 6 31.0
e 242 179 88.0
e 242 151 51.0
e 242 198 17.0
e 242 244 5.0
e 253 179 67.0
e 253 6 91.0
e 253 231 29.0
e 253 297 6.0
e 253 284 7.0
e 253 26 70.0
e 253 20 16.0
e 253 146 61.0
e 253 204 44.0
e 253 66 96.0
e 253 55 95.0
e 253 2 46.0
e 253 170 66.0
e 253 7 88.0
e 253 82 69.0
e 253 86 28.0
e 253 169 56.0
e 253 316 78.0
e 253 121 32.0
e 253 50 81.0
e 253 233 14.0
e 253 89 86.0
e 253 140 24.0
e 253 192 14.0
e 253 225 9.0
e 257 20 48.0
e 257 176 70.0
e 257 208 63.0
e 257 85 87.0
e 257 35 52.0
e 257 70 34.0
e 257 195 56.0
e 257 21 24.0
e 257 285 83.0
e 257 68 52.0
e 257 213 69.0
e 257 32 30.0
e 257 108 87.0
e 257 228 73.0
e 257 150 54.0
e 257 306 39.0
e 257 101 54.0
e 257 221 19.0
e 257 318 93.0
e 257 174 98.0
e 257 79 38.0
e 257 214 70.0
e 257 61 5.0
e 259 88 1.0
e 260 223 1.0
e 260 183 92.0
e 260 226 28.0
e 260 84 63.0
e 260 281 66.0
e 260 110 22.0
e 260 218 75.0
e 260 116 33.0
e 260 200 31.0
e 260 98 70.0
e 260 18 50.0
e 260 149 71.0
e 260 304 18.0
e 260 166 8.0
e 260 217 55.0
e 260 119 11.0
e 260 212 45.0
e 260 141 67.0
e 260 36 99.0
e 260 178 10.0
e 260 202 99.0
e 260 154 88.0
e 260 219 60.0
e 268 274 8.0
e 268 251 1.0
e 277 73 76.0
e 277 280 17.0
e 277 41 19.0
e 277 209 99.0
e 277 271 59.0
e 277 132 40.0
e 277 102 20.0
e 277 234 61.0
e 277 215 94.0
e 277 198 33.0
e 277 171 73.0
e 277 66 85.0
e 277 55 75.0
e 277 155 100.0
e 277 145 60.0
e 277 10 91.0
e 277 292 77.0
e 277 74 62.0
e 277 315 44.0
e 277 160 54.0
e 277 72 38.0
e 277 15 100.0
e 282 198 29.0
e 282 185 12.0
e 282 24 37.0
e 282 233 6.0
e 282 234 63.0
e 282 35 61.0
e 282 10 35.0
e 282 128 49.0
e 282 61 15.0
e 282 186 1.0
e 282 237 84.0
e 282 288 48.0
e 282 9 63.0
e 282 258 44.0
e 282 164 99.0
e 282 305 34.0
e 282 201 23.0
e 282 202 40.0
e 282 274 98.0
e 282 293 100.0
e 282 179 88.0
e 282 67 83.0
e 282 154 11.0
e 282 40 29.0
e 282 92 6.0
e 282 192 92.0
e 285 216 13.0
e 286 218 64.0
e 286 165 20.0
e 286 59 1.0
e 286 81 8.0
e 286 246 66.0
e 286 118 11.0
e 286 2 38.0
e 286 283 28.0
e 286 203 69.0
e 286 8 68.0
e 286 176 65.0
e 286 285 32.0
e 286 280 96.0
e 286 164 60.0
e 286 204 40.0
e 286 248 49.0
e 286 263 86.0
e 286 303 98.0
e 286 315 67.0
e 286 264 83.0
e 286 279 80.0
e 286 179 97.0
e 286 152 2.0
e 286 75 99.0
e 286 35 50.0
e 288 44 3.0
e 289 155 93.0
e 289 7 56.0
e 289 48 65.0
e 289 92 37.0
e 289 259 69.0
e 289 268 79.0
e 289 43 92.0
e 289 3 9.0
e 289 203 84.0
e 289 187 57.0
e 289 273 90.0
e 289 312 64.0
e 289 230 83.0
e 289 291 11.0
e 289 162 88.0
e 289 65 29.0
e 289 180 11.0
e 289 231 62.0
e 289 263 16.0
e 289 240 80.0
e 289 0 4.0
e 289 247 58.0
e 289 242 55.0
e 289 153 53.0
e 289 54 60.0
e 290 221 57.0
e 290 294 26.0
e 290 207 9.0
e 290 9 39.0
e 290 126 50.0
e 290 311 2.0
e 290 169 9.0
e 290 11 79.0
e 290 146 8.0
e 290 61 62.0
e 290 58 85.0
e 290 280 12.0
e 290 314 99.0
e 290 192 68.0
e 290 105 8.0
e 290 282 45.0
e 290 108 15.0
e 290 115 93.0
e 290 59 70.0
e 290 34 22.0
e 290 233 76.0
e 290 210 53.0
e 290 107 81.0
e 290 130 32.0
e 290 23 28.0
e 290 315 12.0
e 295 209 50.0
e 295 119 95.0
e 295 128 4.0
e 295 191 61.0
e 295 243 100.0
e 295 261 86.0
e 295 77 21.0
e 295 315 64.0
e 295 290 80.0
e 295 115 2.0
e 295 313 84.0
e 295 222 7.0
e 295 9 23.0
e 295 85 63.0
e 295 62 65.0
e 295 179 3.0
e 295 221 30.0
e 295 120 19.0
e 295 199 75.0
e 295 203 16.0
e 295 194 85.0
e 295 160 55.0
e 295 305 85.0
e 295 5 37.0
e 295 214 85.0
e 301 223 2.0
e 303 298 82.0
e 303 237 94.0
e 303 47 11.0
e 303 182 25.0
e 303 76 46.0
e 303 166 5.0
e 303 287 20.0
e 303 48 50.0
e 303 18 95.0
e 303 165 54.0
e 303 146 69.0
e 303 67 61.0
e 303 111 43.0
e 303 193 8.0
e 303 222 96.0
e 303 291 88.0
e 303 19 38.0
e 303 299 12.0
e 303 97 63.0
e 303 116 63.0
e 303 169 81.0
e 303 198 19.0
e 303 238 87.0
e 307 59 15.0
e 307 288 76.0
e 307 74 85.0
e 307 60 90.0
e 307 192 8.0
e 307 203 46.0
e 307 214 3.0
e 307 294 94.0
e 307 113 26.0
e 307 223 96.0
e 307 300 8.0
e 307 50 51.0
e 307 236 99.0
e 307 106 68.0
e 307 274 69.0
e 307 242 57.0
e 307 44 61.0
e 307 249 15.0
e 307 250 73.0
e 307 96 83.0
e 307 174 24.0
e 307 183 20.0
e 307 287 99.0
e 307 25 96.0
e 307 54 26.0
e 307 48 68.0
e 310 75 7.0
e 315 108 55.0
e 315 55 78.0
e 315 72 91.0
e 315 143 31.0
e 315 147 81.0
e 315 250 40.0
e 315 313 27.0
e 315 102 82.0
e 315 82 60.0
e 315 154 67.0
e 315 275 73.0
e 315 182 20.0
e 315 221 82.0
e 315 148 60.0
e 315 83 80.0
e 315 131 100.0
e 315 70 89.0
e 315 34 71.0
e 315 9 49.0
e 315 308 3.0
e 318 224 5.0
e 318 286 27.0
e 318 316 34.0
e 318 209 16.0
e 318 54 70.0
e 318 202 88.0
e 318 298 44.0
e 318 173 73.0
e 318 259 14.0
e 318 261 16.0
e 318 143 44.0
e 318 16 55.0
e 318 270 62.0
e 318 56 91.0
e 318 260 39.0
e 318 93 6.0
e 318 223 44.0
e 318 309 57.0
e 318 144 77.0
e 318 158 28.0
e 318 137 62.0
e 318 164 99.0
e 318 60 64.0
e 318 42 87.0
e 319 35 1.0
